data/solutions/recovery/degenerate/intermediate/binding/degenerate_intermediate_instance37/102.sol
Elapsed time: 0.04
Upper bound: 199233.0
Planning weighted value: 9531623357.0
C[0]=199233.0
C[1]=195060.0
C[2]=192924.0
C[3]=188751.0
C[4]=186033.0
C[5]=185265.0
C[6]=181065.0
C[7]=178766.0
C[8]=174925.0
C[9]=124693.0
C[10]=124147.0
C[11]=123649.0
C[12]=117881.0
C[13]=117616.0
C[14]=0.0
C[15]=0.0
y[0]=12
y[1]=1
y[2]=8
y[3]=4
y[4]=0
y[5]=10
y[6]=5
y[7]=2
y[8]=0
y[9]=11
y[10]=1
y[11]=4
y[12]=0
y[13]=0
y[14]=4
y[15]=8
y[16]=4
y[17]=1
y[18]=3
y[19]=0
y[20]=3
y[21]=9
y[22]=13
y[23]=11
y[24]=7
y[25]=2
y[26]=9
y[27]=5
y[28]=10
y[29]=1
y[30]=9
y[31]=10
y[32]=6
y[33]=7
y[34]=3
y[35]=3
y[36]=2
y[37]=11
y[38]=8
y[39]=11
y[40]=10
y[41]=12
y[42]=2
y[43]=1
y[44]=6
y[45]=6
y[46]=4
y[47]=0
y[48]=3
y[49]=1
y[50]=0
y[51]=7
y[52]=12
y[53]=5
y[54]=8
y[55]=13
y[56]=6
y[57]=6
y[58]=5
y[59]=4
y[60]=6
y[61]=1
y[62]=2
y[63]=7
y[64]=8
