data/solutions/recovery/degenerate/intermediate/binding/degenerate_intermediate_instance37/102.log

Log started (V12.6.3.0) Sun Apr 22 12:33:46 2018

New value for default parallel thread count: 1

Problem '/tmp/tmpyGV31e.pyomo.lp' read.
Read time = 0.02 sec. (0.77 ticks)

Problem name         : /tmp/tmpyGV31e.pyomo.lp
Objective sense      : Minimize
Variables            :    1058  [Nneg: 1,  Binary: 1040,  General Integer: 17]
Objective nonzeros   :       1
Linear constraints   :     165  [Less: 81,  Equal: 84]
  Nonzeros           :   54877
  RHS nonzeros       :      66

Variables            : Min LB: 0.000000         Max UB: 1.000000       
Objective nonzeros   : Min   : 1.000000         Max   : 1.000000       
Linear constraints   :
  Nonzeros           : Min   : 1.000000         Max   : 128311.0       
  RHS nonzeros       : Min   : 1.000000         Max   : 1.000000       
Tried aggregator 2 times.
MIP Presolve eliminated 126 rows and 889 columns.
Aggregator did 14 substitutions.
Reduced MIP has 25 rows, 155 columns, and 322 nonzeros.
Reduced MIP has 154 binaries, 1 generals, 0 SOSs, and 0 indicators.
Presolve time = 0.00 sec. (3.84 ticks)
Found incumbent of value 840101.000000 after 0.00 sec. (5.21 ticks)
Probing time = 0.00 sec. (0.21 ticks)
Cover probing fixed 0 vars, tightened 3 bounds.
Tried aggregator 1 time.
Reduced MIP has 25 rows, 155 columns, and 322 nonzeros.
Reduced MIP has 154 binaries, 1 generals, 0 SOSs, and 0 indicators.
Presolve time = 0.00 sec. (0.25 ticks)
Probing time = 0.00 sec. (0.20 ticks)
Clique table members: 11.
MIP emphasis: balance optimality and feasibility.
MIP search method: dynamic search.
Parallel mode: none, using 1 thread.
Root relaxation solution time = 0.00 sec. (0.16 ticks)

        Nodes                                         Cuts/
   Node  Left     Objective  IInf  Best Integer    Best Bound    ItCnt     Gap

*     0+    0                       840101.0000   192924.0000            77.04%
      0     0   192924.0000    14   840101.0000   192924.0000       28   77.04%
*     0+    0                       245043.0000   192924.0000            21.27%
      0     0   192924.0000    10   245043.0000      Cuts: 11       42   21.27%
*     0+    0                       244545.0000   192924.0000            21.11%
      0     0   192924.0000    16   244545.0000      Cuts: 16       62   21.11%
*     0+    0                       214397.0000   192924.0000            10.02%
      0     0   193399.7868    13   214397.0000       Cuts: 9       81    9.79%
*     0+    0                       208875.0000   193399.7868             7.41%
*     0+    0                       201460.0000   193399.7868             4.00%
*     0+    0                       199233.0000   193399.7868             2.93%
      0     0        cutoff         199233.0000   193399.7868       81    2.93%
Elapsed time = 0.01 sec. (8.48 ticks, tree = 0.01 MB, solutions = 6)

Implied bound cuts applied:  1
Mixed integer rounding cuts applied:  5
Zero-half cuts applied:  2

Root node processing (before b&c):
  Real time             =    0.01 sec. (8.55 ticks)
Sequential b&c:
  Real time             =    0.00 sec. (0.01 ticks)
                          ------------
Total (root+branch&cut) =    0.01 sec. (8.55 ticks)

Solution pool: 6 solutions saved.

MIP - Integer optimal solution:  Objective =  1.9923300000e+05
Solution time =    0.01 sec.  Iterations = 81  Nodes = 0
Deterministic time = 8.56 ticks  (899.48 ticks/sec)


Incumbent solution written to file '/tmp/tmplHD9HF.cplex.sol'.
